%chk=C:\Users\timml\Python\CCSD_Tests\TestStructures\chain03.chk
# hf/3-21g geom=connectivity

Title Card Required

0 2
 C                  0.00000000    1.33224509   -0.51884452
 C                  0.00000000    0.00000000   -1.03414009
 O                  0.00000000    1.80453785    0.72538738
 C                  0.00000000   -1.33224509   -0.51884452
 O                  0.00000000   -1.80453785    0.72538738
 C                  0.00000000   -2.55973921   -1.49567212
 H                  0.00000000   -2.32723345   -2.54010550
 C                 -0.00000000    2.55973921   -1.49567212
 H                 -0.00000000    2.32723345   -2.54010550
 C                  0.00000000    3.72718695   -1.26679409
 H                  0.00000000    4.00832887   -0.23438951
 H                  0.00000000    4.48070458   -2.02647243
 C                  0.00000000   -3.72718695   -1.26679409
 H                  0.00000000   -4.48070458   -2.02647243
 H                  0.00000000   -4.00832887   -0.23438951
 Fe                 0.00000000    0.00000000    2.71826446
 C                  0.00000000    0.00000000   -2.57371798
 C                 -1.21074878    0.00000000   -3.27879449
 C                  1.21074878    0.00000000   -3.27879449
 C                 -1.21149014    0.00000000   -4.67845586
 H                 -2.13822287    0.00000000   -2.74523189
 C                  1.21149014    0.00000000   -4.67845586
 H                  2.13822287    0.00000000   -2.74523189
 C                  0.00000000    0.00000000   -5.37913508
 H                 -2.13853259    0.00000000   -5.21171273
 H                  2.13853259    0.00000000   -5.21171273
 H                  0.00000000    0.00000000   -6.44823873
 Cl                -1.66953019    0.00000000    4.07257885
 Cl                 1.66953019    0.00000000    4.07257885

 1 2 1.5 3 1.5 8 1.0
 2 4 1.5 17 1.0
 3 16 0.5
 4 5 1.5 6 1.0
 5 16 0.5
 6 7 1.0 13 2.0
 7
 8 9 1.0 10 2.0
 9
 10 11 1.0 12 1.0
 11
 12
 13 14 1.0 15 1.0
 14
 15
 16 28 1.0 29 1.0
 17 18 1.5 19 1.5
 18 20 1.5 21 1.0
 19 22 1.5 23 1.0
 20 24 1.5 25 1.0
 21
 22 24 1.5 26 1.0
 23
 24 27 1.0
 25
 26
 27
 28
 29

