%chk=C:\Users\timml\Python\CCSD_Tests\TestStructures\chain05.chk
# hf/3-21g geom=connectivity

Title Card Required

0 2
 C                  0.28992944    1.49566312   -0.00000181
 C                  1.53240411    2.14387507   -0.00000314
 H                  2.43534954    1.56977615   -0.00001072
 C                  1.59227337    3.54399568    0.00000686
 C                  2.95763007    4.25631668    0.00000391
 C                  4.10124856    3.52919645   -0.00000487
 O                 -0.98172868   -0.70096903   -0.00001239
 O                  1.52786819   -0.90644504   -0.00002870
 Fe                 0.06103452   -3.13831246   -0.00004375
 C                  0.22413872   -0.04293089   -0.00001229
 Cl                -0.05519608   -4.59709119    1.57506103
 Cl                -0.05521502   -4.59705805   -1.57517780
 C                 -0.89267585    2.24757172    0.00000749
 C                 -2.13515042    1.59935969    0.00000610
 C                 -0.83280662    3.64769226    0.00001785
 C                 -3.31775581    2.35126820    0.00001634
 H                 -2.18086187    0.53033659   -0.00000272
 C                 -2.01541201    4.39960080    0.00002829
 C                 -3.25788660    3.75138876    0.00002747
 H                 -4.26641274    1.85634391    0.00001529
 H                 -1.96970057    5.46862392    0.00003739
 C                  0.40966798    4.29590425    0.00001718
 H                  0.45537950    5.36492737    0.00002360
 H                  4.05553723    2.46017331   -0.00001317
 H                  3.00334145    5.32533983    0.00000979
 C                 -4.55745294    4.57766192    0.00004087
 H                 -4.58777890    5.19473060   -0.87357608
 H                 -5.39970049    3.91772324   -0.00001892
 C                 -4.60116530    5.46563541    1.25749556
 H                 -3.93302194    6.29219123    1.13384311
 H                 -4.30418972    4.89141412    2.11012409
 C                 -6.03392733    5.99043543    1.46576923
 H                 -6.37027516    6.47341986    0.57218310
 H                 -6.68378575    5.17188608    1.69503104
 C                 -6.04728910    6.99819778    2.63017317
 H                 -5.40145568    7.81929503    2.39865967
 H                 -7.04371150    7.35890479    2.77827062
 H                 -5.70598394    6.51659169    3.52262281
 C                  5.46660516    4.24151755   -0.00000363
 H                  5.54653889    4.85939790   -0.86990849
 H                  5.55250267    4.84796476    0.87734658
 C                  6.59328819    3.19172207   -0.01071808
 C                  7.11126442    2.71212228    1.19267550
 C                  7.09585755    2.72026969   -1.22344427
 C                  8.13204370    1.76178416    1.18324862
 H                  6.71536277    3.08457528    2.14859518
 C                  8.11626855    1.76891323   -1.23304544
 H                  6.68760416    3.09802982   -2.17199868
 C                  8.63449599    1.28973331   -0.02998104
 H                  8.54080055    1.38417546    2.13173479
 H                  8.51204257    1.39707275   -2.18937791
 H                  9.43930488    0.54038199   -0.03716371

 1 2 1.5 10 1.0 13 1.5
 2 3 1.0 4 1.5
 3
 4 5 1.0 22 1.5
 5 6 2.0 25 1.0
 6 24 1.0 39 1.0
 7 10 2.0 9 0.5
 8 10 1.0 9 0.5
 9 11 1.0 12 1.0
 10
 11
 12
 13 14 1.5 15 1.5
 14 16 1.5 17 1.0
 15 18 1.5 22 1.5
 16 19 1.5 20 1.0
 17
 18 19 1.5 21 1.0
 19 26 1.0
 20
 21
 22 23 1.0
 23
 24
 25
 26 27 1.0 28 1.0 29 1.0
 27
 28
 29 30 1.0 31 1.0 32 1.0
 30
 31
 32 33 1.0 34 1.0 35 1.0
 33
 34
 35 36 1.0 37 1.0 38 1.0
 36
 37
 38
 39 40 1.0 41 1.0 42 1.0
 40
 41
 42 43 1.5 44 1.5
 43 45 1.5 46 1.0
 44 47 1.5 48 1.0
 45 49 1.5 50 1.0
 46
 47 49 1.5 51 1.0
 48
 49 52 1.0
 50
 51
 52

